\ Multi-dimensional 0/1 knapsack: 60 items, 4 capacity constraints
Maximize
  obj: 62 x0 + 72 x1 + 35 x2 + 33 x3 + 50 x4 + 96 x5 + 15 x6 + 56 x7 + 73 x8 + 48 x9 + 11 x10 + 31 x11 + 82 x12 + 17 x13 + 29 x14 + 42 x15 + 41 x16 + 48 x17 + 78 x18 + 11 x19 + 84 x20 + 63 x21 + 51 x22 + 21 x23 + 73 x24 + 50 x25 + 64 x26 + 30 x27 + 67 x28 + 89 x29 + 67 x30 + 12 x31 + 79 x32 + 13 x33 + 73 x34 + 59 x35 + 46 x36 + 45 x37 + 61 x38 + 14 x39 + 71 x40 + 12 x41 + 25 x42 + 24 x43 + 23 x44 + 71 x45 + 46 x46 + 56 x47 + 18 x48 + 67 x49 + 72 x50 + 37 x51 + 15 x52 + 65 x53 + 31 x54 + 75 x55 + 76 x56 + 66 x57 + 95 x58 + 97 x59
Subject To
  cap0: 25 x0 + 25 x1 + 44 x2 + 9 x3 + 16 x4 + 37 x5 + 15 x6 + 5 x7 + 39 x8 + 41 x9 + 24 x10 + 18 x11 + 29 x12 + 41 x13 + 21 x14 + 26 x15 + 30 x16 + 38 x17 + 30 x18 + 18 x19 + 28 x20 + 9 x21 + 36 x22 + 23 x23 + 25 x24 + 43 x25 + 29 x26 + 13 x27 + 14 x28 + 15 x29 + 14 x30 + 14 x31 + 15 x32 + 37 x33 + 12 x34 + 22 x35 + 17 x36 + 7 x37 + 40 x38 + 20 x39 + 29 x40 + 37 x41 + 5 x42 + 32 x43 + 38 x44 + 20 x45 + 5 x46 + 12 x47 + 16 x48 + 39 x49 + 9 x50 + 28 x51 + 26 x52 + 12 x53 + 23 x54 + 37 x55 + 31 x56 + 43 x57 + 37 x58 + 6 x59 <= 507
  cap1: 41 x0 + 11 x1 + 33 x2 + 40 x3 + 38 x4 + 9 x5 + 25 x6 + 28 x7 + 37 x8 + 10 x9 + 6 x10 + 29 x11 + 29 x12 + 44 x13 + 7 x14 + 44 x15 + 21 x16 + 11 x17 + 24 x18 + 26 x19 + 8 x20 + 8 x21 + 30 x22 + 7 x23 + 7 x24 + 6 x25 + 25 x26 + 8 x27 + 33 x28 + 7 x29 + 35 x30 + 12 x31 + 7 x32 + 5 x33 + 36 x34 + 32 x35 + 29 x36 + 7 x37 + 37 x38 + 21 x39 + 38 x40 + 27 x41 + 12 x42 + 10 x43 + 34 x44 + 30 x45 + 6 x46 + 34 x47 + 21 x48 + 22 x49 + 43 x50 + 33 x51 + 17 x52 + 15 x53 + 23 x54 + 7 x55 + 20 x56 + 15 x57 + 29 x58 + 11 x59 <= 461
  cap2: 32 x0 + 6 x1 + 31 x2 + 38 x3 + 6 x4 + 18 x5 + 35 x6 + 27 x7 + 14 x8 + 38 x9 + 11 x10 + 34 x11 + 8 x12 + 14 x13 + 6 x14 + 21 x15 + 5 x16 + 32 x17 + 21 x18 + 16 x19 + 43 x20 + 38 x21 + 39 x22 + 41 x23 + 8 x24 + 42 x25 + 23 x26 + 18 x27 + 16 x28 + 26 x29 + 42 x30 + 23 x31 + 12 x32 + 39 x33 + 17 x34 + 33 x35 + 36 x36 + 40 x37 + 38 x38 + 6 x39 + 31 x40 + 17 x41 + 33 x42 + 11 x43 + 18 x44 + 38 x45 + 6 x46 + 32 x47 + 33 x48 + 40 x49 + 25 x50 + 43 x51 + 18 x52 + 28 x53 + 9 x54 + 39 x55 + 8 x56 + 31 x57 + 7 x58 + 30 x59 <= 521
  cap3: 35 x0 + 14 x1 + 19 x2 + 38 x3 + 35 x4 + 30 x5 + 15 x6 + 31 x7 + 38 x8 + 16 x9 + 42 x10 + 28 x11 + 15 x12 + 37 x13 + 10 x14 + 20 x15 + 35 x16 + 26 x17 + 14 x18 + 44 x19 + 28 x20 + 31 x21 + 18 x22 + 18 x23 + 26 x24 + 42 x25 + 25 x26 + 44 x27 + 33 x28 + 35 x29 + 11 x30 + 14 x31 + 18 x32 + 7 x33 + 20 x34 + 31 x35 + 41 x36 + 27 x37 + 39 x38 + 23 x39 + 31 x40 + 11 x41 + 8 x42 + 5 x43 + 20 x44 + 31 x45 + 19 x46 + 20 x47 + 11 x48 + 9 x49 + 34 x50 + 7 x51 + 12 x52 + 21 x53 + 30 x54 + 39 x55 + 41 x56 + 22 x57 + 30 x58 + 8 x59 <= 518
Binary
  x0 x1 x2 x3 x4 x5 x6 x7 x8 x9
  x10 x11 x12 x13 x14 x15 x16 x17 x18 x19
  x20 x21 x22 x23 x24 x25 x26 x27 x28 x29
  x30 x31 x32 x33 x34 x35 x36 x37 x38 x39
  x40 x41 x42 x43 x44 x45 x46 x47 x48 x49
  x50 x51 x52 x53 x54 x55 x56 x57 x58 x59
End
